Gurobi advance operations/Nori&Leets_Problem.lp
\ Model Nori&Leets_Problem
\ LP format - for model browsing. Use MPS format to capture full model detail.
Minimize
  8 x_0 + 10 x_1 + 7 x_2 + 6 x_3 + 11 x_4 + 9 x_5
Subject To
 Constraint_1: 12 x_0 + 9 x_1 + 25 x_2 + 20 x_3 + 17 x_4 + 13 x_5 >= 60
 Constraint_2: 35 x_0 + 42 x_1 + 18 x_2 + 31 x_3 + 56 x_4 + 49 x_5 >= 150
 Constraint_3: 37 x_0 + 53 x_1 + 28 x_2 + 24 x_3 + 29 x_4 + 20 x_5 >= 125
Bounds
 x_0 <= 1
 x_1 <= 1
 x_2 <= 1
 x_3 <= 1
 x_4 <= 1
 x_5 <= 1
End
