Gurobi advance operations/Nori&Leets_Problem.mps
NAME Nori&Leets_Problem
ROWS
 N  OBJ
 G  R0      
 G  R1      
 G  R2      
COLUMNS
    C0        OBJ       8
    C0        R0        12
    C0        R1        35
    C0        R2        37
    C1        OBJ       10
    C1        R0        9
    C1        R1        42
    C1        R2        53
    C2        OBJ       7
    C2        R0        25
    C2        R1        18
    C2        R2        28
    C3        OBJ       6
    C3        R0        20
    C3        R1        31
    C3        R2        24
    C4        OBJ       11
    C4        R0        17
    C4        R1        56
    C4        R2        29
    C5        OBJ       9
    C5        R0        13
    C5        R1        49
    C5        R2        20
RHS
    RHS1      R0        60
    RHS1      R1        150
    RHS1      R2        125
BOUNDS
 UP BND1      C0        1
 UP BND1      C1        1
 UP BND1      C2        1
 UP BND1      C3        1
 UP BND1      C4        1
 UP BND1      C5        1
ENDATA
